3 
4  54 
5  14 30 45 
6  03 17 32 47 
7  02 17 32 47 
8  02 17 32 47 
9  02 17 32 47 
10  02 17 32 47 
11  02 17 32 47 
12  02 17 32 47 
13  02 17 32 47 
14  02 17 32 47 
15  02 17 32 47 
16  02 17 32 47 
17  02 17 32 47 
18  02 17 32 47 
19  02 17 32 47 
20  02 17 29 44 59 
21  14 29 44 59 
22  14 29 45 
23  01 
0 
